webassembly/ejemplos_dzn/folder16_json_10.dzn
TERM = { '.', 's(2)', 's(5)', 's(4)', 'in_1', 'local_0', 'local_1', 's(6)', 's(1)', 's(0)', 's(3)', 'in_0'};
null = '.';
s = 16;
n = 10;
ndeps = 3;
max_registers_sz = 4;
NR = 1;
registers = [|'local_1', 'local_0'|];
dependencies = [|'i32.load8_s_10', 'i32.store_15', |'i32.load_11', 'i32.store8_14', |'i32.store8_14', 'i32.store_15'|];
GET_ENUM = { GET1, GET2, GET3, GET4, GET5};
SET_ENUM = { SET1, SET2, SET3, SET4, SET5};
TEE_ENUM = { TEE1, TEE2, TEE3, TEE4, TEE5};
N = 10;
OP = { 'i32.load8_s_10', 'i32.load_11', 'i32.const_0', 'i32.sub_0', 'i32.add_0', 'i32.add_1', 'i32.add_2', 'i32.store8_14', 'i32.store_15', 'local.get_0' };
in_ops = [1, 1, 0, 2, 2, 2, 2, 2, 2, 0 ];
out_ops = [1, 1, 1, 1, 1, 1, 1, 0, 0, 1 ];
in1 = ['local_0', 's(3)', '.', 's(6)', 'local_1', 'local_0', 's(4)', 'local_0', 'in_0', '.' ];
in2 = ['.', '.', '.', 'local_1', 's(0)', 's(1)', 's(2)', 's(5)', 'in_1', '.' ];
in3 = ['.', '.', '.', '.', '.', '.', '.', '.', '.', '.' ];
out1 = ['s(3)', 's(4)', 's(6)', 's(0)', 's(1)', 's(2)', 's(5)', '.', '.', 'local_0' ];
out2 = ['.', '.', '.', '.', '.', '.', '.', '.', '.', '.' ];
out3 = ['.', '.', '.', '.', '.', '.', '.', '.', '.', '.' ];
comm = [false, false, false, false, true, true, true, false, false, false ];
gas = [1, 1, 1, 1, 1, 1, 1, 1, 1, 1 ];
sz = [1, 1, 1, 1, 1, 1, 1, 1, 1, 1 ];
stor = [false, false, false, false, false, false, false, true, true, false ];
lb = [ 1, 1, 1, 1, 1, 1, 1, 1, 1, 1 ];
ub = [ 16, 16, 16, 16, 16, 16, 16, 16, 16, 16 ];
startstack = [ 'in_0', 'in_1', null, null, null, null, null, null, null, null ];
endstack = [ null, null, null, null, null, null, null, null, null, null ];
