webassembly/ejemplos_results/16/folder16_json_10.txt
value = 16;
fgas = [1, 1, 1, 1, 2, 1, 1, 1, 2, 1, 1, 1, 1, 1, 1, 1];
fsize = [1, 1, 1, 1, 1, 1, 1, 1, 1, 1, 1, 1, 1, 1, 1, 1];
states = 
[|    in_0,    in_1,     '.',  '.',  '.', '.', '.', '.', '.', '.'
 | local_0,    in_0,    in_1,  '.',  '.', '.', '.', '.', '.', '.'
 | local_0, local_0,    in_0, in_1,  '.', '.', '.', '.', '.', '.'
 |  's(6)', local_0, local_0, in_0, in_1, '.', '.', '.', '.', '.'
 | local_0, local_0,    in_0, in_1,  '.', '.', '.', '.', '.', '.'
 | local_0,    in_0,    in_1,  '.',  '.', '.', '.', '.', '.', '.'
 | local_0,    in_0,    in_1,  '.',  '.', '.', '.', '.', '.', '.'
 |  's(3)',    in_0,    in_1,  '.',  '.', '.', '.', '.', '.', '.'
 |  's(4)',    in_0,    in_1,  '.',  '.', '.', '.', '.', '.', '.'
 |    in_0,    in_1,     '.',  '.',  '.', '.', '.', '.', '.', '.'
 | local_0,  's(5)',     '.',  '.',  '.', '.', '.', '.', '.', '.'
 |  's(6)', local_1,     '.',  '.',  '.', '.', '.', '.', '.', '.'
 |  's(0)', local_1,     '.',  '.',  '.', '.', '.', '.', '.', '.'
 |  's(1)', local_0,     '.',  '.',  '.', '.', '.', '.', '.', '.'
 |  's(2)',  's(4)',     '.',  '.',  '.', '.', '.', '.', '.', '.'
 |  's(5)',     '.',     '.',  '.',  '.', '.', '.', '.', '.', '.'
 |     '.',     '.',     '.',  '.',  '.', '.', '.', '.', '.', '.'
 |];
register_states = 
[| local_1, '.', '.', '.', '.'
 | local_1, '.', '.', '.', '.'
 | local_1, '.', '.', '.', '.'
 | local_1, '.', '.', '.', '.'
 |  's(6)', '.', '.', '.', '.'
 |  's(6)', '.', '.', '.', '.'
 | local_0, '.', '.', '.', '.'
 | local_0, '.', '.', '.', '.'
 | local_0, '.', '.', '.', '.'
 | local_0, '.', '.', '.', '.'
 | local_0, '.', '.', '.', '.'
 | local_0, '.', '.', '.', '.'
 | local_0, '.', '.', '.', '.'
 | local_0, '.', '.', '.', '.'
 | local_0, '.', '.', '.', '.'
 | local_0, '.', '.', '.', '.'
 | local_0, '.', '.', '.', '.'
 |];
program = [O('local.get_0'), O('local.get_0'), O('i32.const_0'), S(SET1), POP, TEE(TEE1), O('i32.load8_s_10'), O('i32.load_11'), POP, O('i32.store_15'), O('i32.store8_14'), O('i32.sub_0'), O('i32.add_0'), O('i32.add_1'), O('i32.add_2'), G(GET5)];
% time elapsed: 0.83 s
----------
value = 15;
fgas = [1, 1, 1, 2, 1, 1, 1, 1, 2, 1, 1, 1, 1, 1, 2, 0];
fsize = [1, 1, 1, 1, 1, 1, 1, 1, 1, 1, 1, 1, 1, 1, 1, 1];
states = 
[|    in_0,    in_1,  '.', '.', '.', '.', '.', '.', '.', '.'
 | local_0,    in_0, in_1, '.', '.', '.', '.', '.', '.', '.'
 | local_0,    in_0, in_1, '.', '.', '.', '.', '.', '.', '.'
 | local_0,    in_0, in_1, '.', '.', '.', '.', '.', '.', '.'
 |    in_0,    in_1,  '.', '.', '.', '.', '.', '.', '.', '.'
 | local_0,  's(5)',  '.', '.', '.', '.', '.', '.', '.', '.'
 | local_0, local_1,  '.', '.', '.', '.', '.', '.', '.', '.'
 |  's(3)', local_1,  '.', '.', '.', '.', '.', '.', '.', '.'
 |  's(4)', local_1,  '.', '.', '.', '.', '.', '.', '.', '.'
 | local_1,     '.',  '.', '.', '.', '.', '.', '.', '.', '.'
 |  's(6)', local_1,  '.', '.', '.', '.', '.', '.', '.', '.'
 |  's(0)', local_1,  '.', '.', '.', '.', '.', '.', '.', '.'
 |  's(1)', local_0,  '.', '.', '.', '.', '.', '.', '.', '.'
 |  's(2)',  's(4)',  '.', '.', '.', '.', '.', '.', '.', '.'
 |  's(5)',     '.',  '.', '.', '.', '.', '.', '.', '.', '.'
 |     '.',     '.',  '.', '.', '.', '.', '.', '.', '.', '.'
 |     '.',     '.',  '.', '.', '.', '.', '.', '.', '.', '.'
 |];
register_states = 
[| local_1, '.', '.', '.', '.'
 | local_1, '.', '.', '.', '.'
 | local_0, '.', '.', '.', '.'
 | local_0, '.', '.', '.', '.'
 | local_0, '.', '.', '.', '.'
 | local_0, '.', '.', '.', '.'
 | local_0, '.', '.', '.', '.'
 | local_0, '.', '.', '.', '.'
 | local_0, '.', '.', '.', '.'
 | local_0, '.', '.', '.', '.'
 | local_0, '.', '.', '.', '.'
 | local_0, '.', '.', '.', '.'
 | local_0, '.', '.', '.', '.'
 | local_0, '.', '.', '.', '.'
 | local_0, '.', '.', '.', '.'
 | local_0, '.', '.', '.', '.'
 | local_0, '.', '.', '.', '.'
 |];
program = [O('local.get_0'), TEE(TEE1), TEE(TEE1), POP, O('i32.store_15'), O('i32.store8_14'), O('i32.load8_s_10'), O('i32.load_11'), POP, O('i32.const_0'), O('i32.sub_0'), O('i32.add_0'), O('i32.add_1'), O('i32.add_2'), POP, NOP];
% time elapsed: 0.89 s
----------
value = 14;
fgas = [1, 1, 1, 1, 1, 1, 1, 1, 2, 1, 1, 1, 1, 2, 0, 0];
fsize = [1, 1, 1, 1, 1, 1, 1, 1, 1, 1, 1, 1, 1, 1, 1, 1];
states = 
[|    in_0,    in_1,  '.', '.', '.', '.', '.', '.', '.', '.'
 |  's(2)',  's(4)',  '.', '.', '.', '.', '.', '.', '.', '.'
 |  's(5)',    in_0,  '.', '.', '.', '.', '.', '.', '.', '.'
 | local_0,  's(5)', in_0, '.', '.', '.', '.', '.', '.', '.'
 |    in_0,    in_1,  '.', '.', '.', '.', '.', '.', '.', '.'
 | local_0, local_1,  '.', '.', '.', '.', '.', '.', '.', '.'
 | local_0, local_1,  '.', '.', '.', '.', '.', '.', '.', '.'
 |  's(3)', local_1,  '.', '.', '.', '.', '.', '.', '.', '.'
 |  's(4)', local_1,  '.', '.', '.', '.', '.', '.', '.', '.'
 | local_1,     '.',  '.', '.', '.', '.', '.', '.', '.', '.'
 |  's(6)', local_1,  '.', '.', '.', '.', '.', '.', '.', '.'
 |  's(0)', local_1,  '.', '.', '.', '.', '.', '.', '.', '.'
 |  's(1)', local_0,  '.', '.', '.', '.', '.', '.', '.', '.'
 |  's(2)',     '.',  '.', '.', '.', '.', '.', '.', '.', '.'
 |     '.',     '.',  '.', '.', '.', '.', '.', '.', '.', '.'
 |     '.',     '.',  '.', '.', '.', '.', '.', '.', '.', '.'
 |     '.',     '.',  '.', '.', '.', '.', '.', '.', '.', '.'
 |];
register_states = 
[| local_1, '.', '.', '.', '.'
 | local_1, '.', '.', '.', '.'
 | local_1, '.', '.', '.', '.'
 | local_1, '.', '.', '.', '.'
 | local_1, '.', '.', '.', '.'
 | local_1, '.', '.', '.', '.'
 | local_0, '.', '.', '.', '.'
 | local_0, '.', '.', '.', '.'
 | local_0, '.', '.', '.', '.'
 | local_0, '.', '.', '.', '.'
 | local_0, '.', '.', '.', '.'
 | local_0, '.', '.', '.', '.'
 | local_0, '.', '.', '.', '.'
 | local_0, '.', '.', '.', '.'
 | local_0, '.', '.', '.', '.'
 | local_0, '.', '.', '.', '.'
 | local_0, '.', '.', '.', '.'
 |];
program = [O('i32.store_15'), O('i32.add_2'), O('local.get_0'), O('i32.store8_14'), O('i32.store_15'), TEE(TEE1), O('i32.load8_s_10'), O('i32.load_11'), POP, O('i32.const_0'), O('i32.sub_0'), O('i32.add_0'), O('i32.add_1'), POP, NOP, NOP];
% time elapsed: 0.98 s
----------
=====UNKNOWN=====
% time elapsed: 0.99 s
